c " random instance " 
p edges 200 4057
e 1 3
e 1 11
e 1 13
e 1 15
e 1 17
e 1 23
e 1 24
e 1 47
e 1 49
e 1 56
e 1 62
e 1 63
e 1 78
e 1 80
e 1 81
e 1 85
e 1 88
e 1 91
e 1 92
e 1 93
e 1 94
e 1 99
e 1 100
e 1 103
e 1 104
e 1 110
e 1 112
e 1 115
e 1 122
e 1 127
e 1 139
e 1 142
e 1 155
e 1 159
e 1 167
e 1 172
e 1 173
e 1 174
e 1 179
e 1 181
e 1 187
e 1 194
e 1 196
e 2 7
e 2 9
e 2 21
e 2 23
e 2 26
e 2 43
e 2 46
e 2 47
e 2 53
e 2 96
e 2 117
e 2 122
e 2 126
e 2 127
e 2 131
e 2 149
e 2 155
e 2 163
e 2 166
e 2 168
e 2 174
e 2 175
e 2 180
e 2 181
e 2 182
e 2 184
e 2 185
e 2 186
e 2 191
e 2 194
e 2 199
e 3 4
e 3 5
e 3 19
e 3 21
e 3 22
e 3 31
e 3 33
e 3 43
e 3 45
e 3 50
e 3 52
e 3 53
e 3 54
e 3 63
e 3 70
e 3 74
e 3 80
e 3 81
e 3 83
e 3 84
e 3 89
e 3 91
e 3 92
e 3 97
e 3 105
e 3 110
e 3 111
e 3 113
e 3 116
e 3 117
e 3 118
e 3 119
e 3 127
e 3 130
e 3 138
e 3 150
e 3 151
e 3 156
e 3 161
e 3 168
e 3 173
e 3 179
e 3 182
e 3 183
e 3 185
e 3 187
e 3 192
e 3 195
e 3 198
e 3 200
e 4 10
e 4 13
e 4 17
e 4 23
e 4 26
e 4 28
e 4 29
e 4 31
e 4 36
e 4 42
e 4 49
e 4 51
e 4 54
e 4 65
e 4 66
e 4 69
e 4 81
e 4 86
e 4 95
e 4 97
e 4 99
e 4 101
e 4 102
e 4 104
e 4 108
e 4 111
e 4 113
e 4 123
e 4 125
e 4 126
e 4 129
e 4 131
e 4 132
e 4 133
e 4 140
e 4 143
e 4 145
e 4 150
e 4 152
e 4 153
e 4 154
e 4 158
e 4 167
e 4 169
e 4 174
e 4 179
e 4 190
e 4 192
e 4 194
e 5 8
e 5 27
e 5 34
e 5 35
e 5 41
e 5 43
e 5 45
e 5 56
e 5 57
e 5 65
e 5 66
e 5 68
e 5 71
e 5 76
e 5 79
e 5 80
e 5 84
e 5 87
e 5 88
e 5 92
e 5 101
e 5 104
e 5 114
e 5 120
e 5 124
e 5 127
e 5 129
e 5 132
e 5 133
e 5 142
e 5 144
e 5 149
e 5 150
e 5 157
e 5 159
e 5 164
e 5 165
e 5 166
e 5 171
e 5 172
e 5 192
e 6 14
e 6 18
e 6 24
e 6 26
e 6 32
e 6 37
e 6 43
e 6 52
e 6 53
e 6 58
e 6 63
e 6 65
e 6 69
e 6 74
e 6 81
e 6 83
e 6 87
e 6 90
e 6 103
e 6 106
e 6 116
e 6 117
e 6 120
e 6 123
e 6 124
e 6 131
e 6 137
e 6 140
e 6 141
e 6 146
e 6 149
e 6 161
e 6 171
e 6 176
e 6 181
e 6 190
e 6 197
e 6 198
e 6 200
e 7 15
e 7 21
e 7 24
e 7 33
e 7 41
e 7 46
e 7 47
e 7 55
e 7 57
e 7 58
e 7 61
e 7 70
e 7 73
e 7 74
e 7 75
e 7 77
e 7 78
e 7 87
e 7 91
e 7 93
e 7 102
e 7 107
e 7 110
e 7 112
e 7 116
e 7 118
e 7 129
e 7 131
e 7 134
e 7 139
e 7 147
e 7 149
e 7 152
e 7 156
e 7 162
e 7 168
e 7 170
e 7 171
e 7 180
e 7 182
e 7 186
e 7 188
e 7 193
e 7 196
e 7 199
e 8 11
e 8 13
e 8 16
e 8 24
e 8 25
e 8 28
e 8 33
e 8 34
e 8 36
e 8 38
e 8 40
e 8 42
e 8 43
e 8 47
e 8 50
e 8 53
e 8 64
e 8 66
e 8 70
e 8 72
e 8 73
e 8 76
e 8 81
e 8 83
e 8 87
e 8 88
e 8 99
e 8 101
e 8 103
e 8 109
e 8 110
e 8 115
e 8 123
e 8 126
e 8 130
e 8 131
e 8 133
e 8 160
e 8 163
e 8 174
e 8 181
e 8 183
e 8 184
e 8 186
e 8 187
e 8 200
e 9 13
e 9 24
e 9 29
e 9 33
e 9 34
e 9 35
e 9 39
e 9 48
e 9 79
e 9 83
e 9 84
e 9 90
e 9 98
e 9 99
e 9 102
e 9 106
e 9 107
e 9 108
e 9 119
e 9 134
e 9 139
e 9 143
e 9 145
e 9 160
e 9 161
e 9 170
e 9 173
e 9 175
e 9 176
e 9 181
e 9 188
e 9 197
e 10 12
e 10 18
e 10 19
e 10 29
e 10 32
e 10 33
e 10 37
e 10 38
e 10 39
e 10 40
e 10 45
e 10 48
e 10 52
e 10 56
e 10 57
e 10 61
e 10 67
e 10 69
e 10 70
e 10 78
e 10 88
e 10 96
e 10 99
e 10 102
e 10 106
e 10 109
e 10 118
e 10 127
e 10 129
e 10 132
e 10 146
e 10 147
e 10 161
e 10 165
e 10 173
e 10 174
e 10 181
e 10 185
e 10 187
e 10 190
e 10 191
e 10 194
e 10 196
e 10 199
e 11 12
e 11 15
e 11 18
e 11 24
e 11 28
e 11 30
e 11 32
e 11 39
e 11 40
e 11 53
e 11 55
e 11 58
e 11 62
e 11 64
e 11 74
e 11 81
e 11 84
e 11 85
e 11 90
e 11 104
e 11 105
e 11 107
e 11 108
e 11 113
e 11 122
e 11 127
e 11 130
e 11 137
e 11 144
e 11 148
e 11 153
e 11 155
e 11 162
e 11 163
e 11 171
e 11 179
e 11 182
e 11 200
e 12 21
e 12 22
e 12 29
e 12 31
e 12 32
e 12 35
e 12 40
e 12 42
e 12 43
e 12 44
e 12 66
e 12 75
e 12 81
e 12 87
e 12 92
e 12 97
e 12 98
e 12 100
e 12 108
e 12 113
e 12 127
e 12 128
e 12 130
e 12 136
e 12 143
e 12 146
e 12 155
e 12 160
e 12 168
e 12 170
e 12 171
e 12 173
e 12 178
e 12 179
e 12 186
e 12 189
e 12 193
e 12 197
e 13 18
e 13 20
e 13 27
e 13 33
e 13 35
e 13 41
e 13 44
e 13 47
e 13 51
e 13 56
e 13 60
e 13 62
e 13 65
e 13 68
e 13 71
e 13 72
e 13 83
e 13 87
e 13 89
e 13 96
e 13 102
e 13 106
e 13 109
e 13 110
e 13 113
e 13 128
e 13 129
e 13 143
e 13 145
e 13 148
e 13 156
e 13 162
e 13 165
e 13 168
e 13 172
e 13 175
e 13 176
e 13 185
e 13 188
e 13 189
e 13 190
e 13 191
e 14 17
e 14 28
e 14 44
e 14 53
e 14 55
e 14 59
e 14 61
e 14 68
e 14 71
e 14 73
e 14 85
e 14 106
e 14 111
e 14 114
e 14 122
e 14 123
e 14 124
e 14 128
e 14 135
e 14 138
e 14 140
e 14 144
e 14 152
e 14 157
e 14 159
e 14 165
e 14 171
e 14 179
e 14 187
e 14 189
e 14 192
e 14 195
e 14 196
e 14 197
e 15 18
e 15 19
e 15 21
e 15 31
e 15 32
e 15 34
e 15 35
e 15 36
e 15 39
e 15 41
e 15 42
e 15 45
e 15 46
e 15 51
e 15 53
e 15 67
e 15 68
e 15 75
e 15 80
e 15 89
e 15 94
e 15 99
e 15 101
e 15 122
e 15 123
e 15 127
e 15 131
e 15 133
e 15 135
e 15 136
e 15 142
e 15 144
e 15 149
e 15 152
e 15 154
e 15 157
e 15 160
e 15 162
e 15 166
e 15 170
e 15 174
e 15 175
e 15 178
e 15 180
e 15 181
e 15 190
e 15 195
e 15 198
e 15 199
e 16 25
e 16 44
e 16 54
e 16 55
e 16 56
e 16 57
e 16 63
e 16 69
e 16 70
e 16 76
e 16 79
e 16 87
e 16 89
e 16 102
e 16 104
e 16 110
e 16 143
e 16 145
e 16 162
e 16 163
e 16 170
e 16 173
e 16 184
e 16 186
e 16 189
e 16 192
e 16 198
e 16 199
e 17 22
e 17 35
e 17 36
e 17 38
e 17 41
e 17 46
e 17 56
e 17 60
e 17 75
e 17 89
e 17 94
e 17 95
e 17 97
e 17 98
e 17 100
e 17 102
e 17 104
e 17 121
e 17 122
e 17 127
e 17 128
e 17 131
e 17 140
e 17 141
e 17 143
e 17 144
e 17 147
e 17 153
e 17 154
e 17 156
e 17 157
e 17 164
e 17 166
e 17 183
e 17 186
e 17 187
e 17 196
e 18 19
e 18 20
e 18 42
e 18 43
e 18 58
e 18 63
e 18 88
e 18 89
e 18 97
e 18 99
e 18 113
e 18 114
e 18 116
e 18 118
e 18 122
e 18 131
e 18 144
e 18 147
e 18 149
e 18 154
e 18 164
e 18 187
e 18 200
e 19 30
e 19 31
e 19 36
e 19 38
e 19 41
e 19 46
e 19 49
e 19 50
e 19 55
e 19 56
e 19 58
e 19 62
e 19 63
e 19 66
e 19 67
e 19 69
e 19 81
e 19 86
e 19 89
e 19 93
e 19 100
e 19 102
e 19 105
e 19 110
e 19 114
e 19 119
e 19 125
e 19 126
e 19 128
e 19 129
e 19 133
e 19 138
e 19 139
e 19 140
e 19 143
e 19 145
e 19 151
e 19 159
e 19 169
e 19 175
e 19 177
e 19 187
e 19 189
e 19 192
e 19 193
e 20 44
e 20 45
e 20 49
e 20 60
e 20 61
e 20 62
e 20 66
e 20 68
e 20 69
e 20 70
e 20 71
e 20 84
e 20 90
e 20 95
e 20 101
e 20 108
e 20 110
e 20 116
e 20 119
e 20 125
e 20 126
e 20 127
e 20 128
e 20 132
e 20 140
e 20 141
e 20 144
e 20 148
e 20 163
e 20 167
e 20 168
e 20 174
e 20 178
e 20 184
e 20 186
e 20 188
e 20 189
e 20 192
e 20 193
e 20 194
e 21 29
e 21 35
e 21 40
e 21 43
e 21 61
e 21 63
e 21 64
e 21 66
e 21 67
e 21 68
e 21 69
e 21 77
e 21 79
e 21 80
e 21 81
e 21 85
e 21 89
e 21 93
e 21 98
e 21 102
e 21 114
e 21 116
e 21 117
e 21 121
e 21 129
e 21 137
e 21 149
e 21 158
e 21 165
e 21 166
e 21 177
e 21 181
e 21 188
e 21 192
e 21 194
e 22 26
e 22 28
e 22 30
e 22 39
e 22 43
e 22 44
e 22 51
e 22 52
e 22 58
e 22 59
e 22 62
e 22 80
e 22 83
e 22 85
e 22 89
e 22 94
e 22 100
e 22 102
e 22 111
e 22 114
e 22 119
e 22 120
e 22 121
e 22 122
e 22 127
e 22 133
e 22 138
e 22 155
e 22 157
e 22 161
e 22 167
e 22 168
e 22 183
e 22 192
e 22 193
e 22 194
e 22 196
e 22 200
e 23 25
e 23 29
e 23 32
e 23 48
e 23 59
e 23 68
e 23 72
e 23 80
e 23 84
e 23 86
e 23 91
e 23 97
e 23 102
e 23 105
e 23 107
e 23 117
e 23 121
e 23 122
e 23 135
e 23 145
e 23 146
e 23 153
e 23 158
e 23 160
e 23 165
e 23 169
e 23 182
e 23 185
e 23 189
e 24 25
e 24 30
e 24 40
e 24 46
e 24 48
e 24 49
e 24 51
e 24 60
e 24 61
e 24 65
e 24 75
e 24 79
e 24 87
e 24 90
e 24 91
e 24 93
e 24 94
e 24 108
e 24 123
e 24 124
e 24 128
e 24 129
e 24 132
e 24 134
e 24 135
e 24 137
e 24 142
e 24 145
e 24 147
e 24 148
e 24 159
e 24 167
e 24 170
e 24 175
e 24 192
e 24 196
e 25 27
e 25 34
e 25 42
e 25 45
e 25 47
e 25 51
e 25 53
e 25 66
e 25 75
e 25 80
e 25 85
e 25 86
e 25 88
e 25 95
e 25 98
e 25 103
e 25 108
e 25 111
e 25 112
e 25 113
e 25 119
e 25 125
e 25 136
e 25 140
e 25 142
e 25 151
e 25 153
e 25 165
e 25 167
e 25 168
e 25 171
e 25 173
e 25 175
e 25 182
e 25 195
e 25 197
e 26 32
e 26 39
e 26 41
e 26 42
e 26 43
e 26 47
e 26 52
e 26 54
e 26 55
e 26 56
e 26 61
e 26 65
e 26 75
e 26 76
e 26 90
e 26 99
e 26 108
e 26 110
e 26 112
e 26 117
e 26 123
e 26 136
e 26 138
e 26 141
e 26 145
e 26 146
e 26 148
e 26 150
e 26 151
e 26 152
e 26 161
e 26 166
e 26 174
e 26 177
e 26 178
e 26 180
e 26 182
e 26 190
e 26 194
e 27 28
e 27 31
e 27 34
e 27 38
e 27 43
e 27 53
e 27 67
e 27 76
e 27 79
e 27 90
e 27 92
e 27 94
e 27 99
e 27 117
e 27 120
e 27 125
e 27 132
e 27 140
e 27 145
e 27 149
e 27 158
e 27 163
e 27 169
e 27 174
e 27 175
e 27 178
e 27 181
e 27 183
e 27 184
e 27 185
e 27 187
e 27 193
e 27 195
e 28 34
e 28 36
e 28 42
e 28 45
e 28 47
e 28 54
e 28 58
e 28 59
e 28 60
e 28 65
e 28 82
e 28 89
e 28 90
e 28 93
e 28 94
e 28 102
e 28 104
e 28 105
e 28 106
e 28 109
e 28 113
e 28 117
e 28 122
e 28 130
e 28 132
e 28 133
e 28 136
e 28 142
e 28 144
e 28 156
e 28 160
e 28 166
e 28 173
e 28 174
e 28 175
e 28 180
e 28 194
e 28 196
e 29 32
e 29 33
e 29 40
e 29 62
e 29 64
e 29 74
e 29 75
e 29 79
e 29 92
e 29 93
e 29 99
e 29 115
e 29 116
e 29 117
e 29 118
e 29 123
e 29 127
e 29 128
e 29 131
e 29 132
e 29 135
e 29 137
e 29 152
e 29 153
e 29 161
e 29 165
e 29 168
e 29 172
e 29 181
e 29 188
e 29 197
e 30 37
e 30 38
e 30 43
e 30 53
e 30 57
e 30 58
e 30 61
e 30 67
e 30 68
e 30 70
e 30 71
e 30 76
e 30 78
e 30 92
e 30 95
e 30 98
e 30 117
e 30 118
e 30 124
e 30 128
e 30 133
e 30 136
e 30 141
e 30 142
e 30 149
e 30 152
e 30 153
e 30 169
e 30 175
e 30 177
e 30 185
e 30 189
e 30 191
e 30 197
e 30 200
e 31 35
e 31 36
e 31 37
e 31 47
e 31 49
e 31 52
e 31 53
e 31 62
e 31 63
e 31 73
e 31 74
e 31 76
e 31 87
e 31 92
e 31 103
e 31 109
e 31 110
e 31 125
e 31 146
e 31 151
e 31 153
e 31 154
e 31 155
e 31 165
e 31 166
e 31 170
e 31 182
e 31 193
e 31 194
e 31 196
e 31 200
e 32 34
e 32 36
e 32 39
e 32 40
e 32 46
e 32 48
e 32 54
e 32 81
e 32 89
e 32 94
e 32 100
e 32 116
e 32 130
e 32 134
e 32 148
e 32 160
e 32 168
e 32 175
e 32 199
e 32 200
e 33 36
e 33 38
e 33 42
e 33 47
e 33 48
e 33 53
e 33 56
e 33 63
e 33 64
e 33 67
e 33 86
e 33 87
e 33 94
e 33 99
e 33 103
e 33 104
e 33 115
e 33 117
e 33 118
e 33 121
e 33 124
e 33 126
e 33 131
e 33 134
e 33 138
e 33 140
e 33 143
e 33 152
e 33 158
e 33 162
e 33 163
e 33 168
e 33 170
e 33 171
e 33 175
e 33 182
e 33 191
e 33 199
e 34 39
e 34 40
e 34 46
e 34 48
e 34 50
e 34 56
e 34 61
e 34 75
e 34 87
e 34 94
e 34 97
e 34 99
e 34 101
e 34 103
e 34 110
e 34 112
e 34 116
e 34 118
e 34 136
e 34 140
e 34 143
e 34 156
e 34 161
e 34 162
e 34 166
e 34 170
e 34 179
e 34 180
e 34 186
e 34 187
e 34 195
e 34 199
e 35 37
e 35 41
e 35 49
e 35 50
e 35 51
e 35 55
e 35 64
e 35 65
e 35 67
e 35 77
e 35 80
e 35 82
e 35 88
e 35 98
e 35 103
e 35 105
e 35 108
e 35 119
e 35 122
e 35 126
e 35 132
e 35 137
e 35 154
e 35 157
e 35 159
e 35 165
e 35 167
e 35 171
e 35 174
e 35 188
e 35 192
e 35 193
e 35 198
e 36 37
e 36 40
e 36 41
e 36 46
e 36 50
e 36 79
e 36 80
e 36 84
e 36 86
e 36 87
e 36 90
e 36 93
e 36 94
e 36 98
e 36 113
e 36 115
e 36 116
e 36 119
e 36 124
e 36 128
e 36 157
e 36 163
e 36 169
e 36 175
e 36 176
e 36 179
e 36 189
e 36 192
e 36 197
e 37 41
e 37 47
e 37 68
e 37 69
e 37 72
e 37 77
e 37 79
e 37 92
e 37 100
e 37 101
e 37 107
e 37 109
e 37 110
e 37 111
e 37 113
e 37 117
e 37 119
e 37 128
e 37 140
e 37 141
e 37 153
e 37 154
e 37 156
e 37 159
e 37 162
e 37 164
e 37 166
e 37 168
e 37 171
e 37 178
e 37 181
e 37 189
e 37 190
e 37 192
e 38 53
e 38 59
e 38 60
e 38 74
e 38 78
e 38 86
e 38 94
e 38 107
e 38 109
e 38 110
e 38 115
e 38 116
e 38 117
e 38 122
e 38 129
e 38 131
e 38 138
e 38 147
e 38 152
e 38 155
e 38 156
e 38 160
e 38 162
e 38 163
e 38 172
e 38 187
e 38 189
e 38 192
e 38 194
e 38 195
e 39 41
e 39 57
e 39 68
e 39 71
e 39 82
e 39 85
e 39 92
e 39 94
e 39 96
e 39 110
e 39 113
e 39 130
e 39 132
e 39 135
e 39 137
e 39 145
e 39 146
e 39 153
e 39 154
e 39 162
e 39 164
e 39 167
e 39 175
e 39 181
e 39 184
e 39 196
e 39 197
e 39 199
e 40 42
e 40 44
e 40 48
e 40 54
e 40 55
e 40 61
e 40 65
e 40 67
e 40 73
e 40 76
e 40 83
e 40 87
e 40 98
e 40 99
e 40 102
e 40 103
e 40 105
e 40 114
e 40 118
e 40 119
e 40 128
e 40 129
e 40 135
e 40 136
e 40 143
e 40 148
e 40 156
e 40 160
e 40 173
e 40 177
e 40 186
e 40 187
e 40 195
e 40 199
e 41 44
e 41 51
e 41 52
e 41 58
e 41 73
e 41 75
e 41 76
e 41 84
e 41 90
e 41 99
e 41 100
e 41 101
e 41 107
e 41 109
e 41 125
e 41 140
e 41 142
e 41 144
e 41 145
e 41 147
e 41 155
e 41 162
e 41 181
e 41 182
e 41 186
e 41 188
e 41 190
e 41 193
e 41 197
e 42 44
e 42 45
e 42 49
e 42 55
e 42 56
e 42 60
e 42 61
e 42 67
e 42 71
e 42 75
e 42 78
e 42 79
e 42 80
e 42 84
e 42 86
e 42 97
e 42 99
e 42 100
e 42 101
e 42 104
e 42 109
e 42 115
e 42 121
e 42 126
e 42 131
e 42 138
e 42 149
e 42 157
e 42 158
e 42 159
e 42 163
e 42 164
e 42 169
e 42 177
e 42 180
e 42 186
e 42 189
e 42 192
e 42 196
e 42 197
e 42 198
e 43 46
e 43 47
e 43 55
e 43 64
e 43 69
e 43 75
e 43 78
e 43 83
e 43 96
e 43 97
e 43 104
e 43 107
e 43 122
e 43 124
e 43 126
e 43 134
e 43 136
e 43 137
e 43 139
e 43 143
e 43 144
e 43 161
e 43 162
e 43 165
e 43 166
e 43 168
e 43 172
e 43 176
e 43 181
e 43 183
e 43 187
e 43 190
e 43 191
e 43 192
e 43 195
e 43 198
e 43 199
e 43 200
e 44 55
e 44 56
e 44 79
e 44 93
e 44 98
e 44 102
e 44 108
e 44 111
e 44 112
e 44 114
e 44 115
e 44 131
e 44 136
e 44 138
e 44 141
e 44 142
e 44 144
e 44 159
e 44 165
e 44 166
e 44 182
e 44 184
e 44 185
e 45 51
e 45 54
e 45 57
e 45 77
e 45 79
e 45 85
e 45 86
e 45 88
e 45 89
e 45 92
e 45 93
e 45 94
e 45 96
e 45 105
e 45 109
e 45 117
e 45 132
e 45 139
e 45 146
e 45 147
e 45 154
e 45 158
e 45 168
e 45 171
e 45 172
e 45 176
e 45 191
e 45 192
e 45 193
e 45 195
e 46 50
e 46 56
e 46 59
e 46 60
e 46 62
e 46 65
e 46 68
e 46 69
e 46 78
e 46 79
e 46 83
e 46 85
e 46 90
e 46 96
e 46 98
e 46 111
e 46 112
e 46 115
e 46 117
e 46 120
e 46 121
e 46 122
e 46 126
e 46 130
e 46 146
e 46 147
e 46 150
e 46 158
e 46 164
e 46 166
e 46 170
e 46 171
e 46 180
e 46 184
e 46 186
e 46 191
e 47 49
e 47 52
e 47 69
e 47 79
e 47 83
e 47 85
e 47 92
e 47 93
e 47 95
e 47 99
e 47 111
e 47 113
e 47 115
e 47 128
e 47 129
e 47 134
e 47 141
e 47 146
e 47 153
e 47 156
e 47 157
e 47 164
e 47 169
e 47 184
e 47 192
e 47 195
e 47 200
e 48 49
e 48 57
e 48 66
e 48 74
e 48 77
e 48 87
e 48 90
e 48 93
e 48 96
e 48 99
e 48 104
e 48 114
e 48 123
e 48 135
e 48 136
e 48 143
e 48 145
e 48 146
e 48 151
e 48 153
e 48 154
e 48 155
e 48 159
e 48 167
e 48 169
e 48 170
e 48 181
e 48 184
e 48 185
e 48 197
e 49 53
e 49 59
e 49 62
e 49 63
e 49 77
e 49 85
e 49 90
e 49 92
e 49 93
e 49 95
e 49 98
e 49 100
e 49 113
e 49 125
e 49 129
e 49 130
e 49 136
e 49 142
e 49 150
e 49 152
e 49 153
e 49 156
e 49 160
e 49 162
e 49 177
e 49 182
e 49 183
e 49 198
e 49 200
e 50 66
e 50 68
e 50 70
e 50 74
e 50 79
e 50 92
e 50 97
e 50 98
e 50 102
e 50 104
e 50 113
e 50 119
e 50 130
e 50 133
e 50 137
e 50 142
e 50 146
e 50 149
e 50 150
e 50 152
e 50 156
e 50 166
e 50 173
e 50 177
e 50 183
e 51 69
e 51 76
e 51 79
e 51 92
e 51 112
e 51 120
e 51 124
e 51 127
e 51 130
e 51 131
e 51 138
e 51 142
e 51 144
e 51 146
e 51 158
e 51 163
e 51 171
e 51 175
e 51 178
e 51 182
e 51 191
e 51 194
e 51 195
e 52 55
e 52 59
e 52 63
e 52 66
e 52 80
e 52 89
e 52 97
e 52 99
e 52 102
e 52 103
e 52 108
e 52 118
e 52 119
e 52 122
e 52 128
e 52 129
e 52 131
e 52 132
e 52 133
e 52 143
e 52 145
e 52 147
e 52 148
e 52 150
e 52 153
e 52 156
e 52 157
e 52 163
e 52 174
e 52 178
e 52 181
e 52 182
e 52 198
e 53 59
e 53 75
e 53 91
e 53 101
e 53 102
e 53 104
e 53 112
e 53 114
e 53 126
e 53 134
e 53 136
e 53 146
e 53 147
e 53 149
e 53 153
e 53 157
e 53 169
e 53 171
e 53 172
e 53 173
e 53 181
e 53 185
e 53 187
e 53 196
e 53 199
e 54 58
e 54 70
e 54 73
e 54 82
e 54 86
e 54 87
e 54 90
e 54 98
e 54 99
e 54 103
e 54 109
e 54 111
e 54 116
e 54 117
e 54 119
e 54 120
e 54 125
e 54 130
e 54 131
e 54 132
e 54 137
e 54 140
e 54 143
e 54 144
e 54 146
e 54 150
e 54 157
e 54 160
e 54 168
e 54 169
e 54 174
e 54 177
e 54 178
e 54 180
e 54 182
e 54 187
e 54 194
e 54 196
e 55 62
e 55 83
e 55 85
e 55 87
e 55 88
e 55 99
e 55 100
e 55 107
e 55 111
e 55 119
e 55 121
e 55 124
e 55 132
e 55 134
e 55 148
e 55 149
e 55 168
e 55 170
e 55 174
e 55 175
e 55 186
e 55 187
e 55 188
e 55 190
e 55 195
e 56 60
e 56 61
e 56 66
e 56 69
e 56 88
e 56 91
e 56 96
e 56 101
e 56 106
e 56 108
e 56 111
e 56 114
e 56 126
e 56 129
e 56 139
e 56 140
e 56 141
e 56 148
e 56 151
e 56 153
e 56 155
e 56 156
e 56 164
e 56 177
e 56 190
e 56 191
e 56 193
e 57 60
e 57 63
e 57 66
e 57 68
e 57 72
e 57 73
e 57 74
e 57 79
e 57 80
e 57 86
e 57 92
e 57 101
e 57 104
e 57 105
e 57 106
e 57 111
e 57 115
e 57 125
e 57 127
e 57 130
e 57 137
e 57 142
e 57 147
e 57 150
e 57 164
e 57 168
e 57 169
e 57 170
e 57 176
e 57 184
e 57 191
e 57 198
e 58 62
e 58 67
e 58 70
e 58 71
e 58 74
e 58 77
e 58 78
e 58 86
e 58 89
e 58 91
e 58 98
e 58 106
e 58 108
e 58 115
e 58 123
e 58 135
e 58 136
e 58 137
e 58 138
e 58 140
e 58 151
e 58 156
e 58 157
e 58 158
e 58 159
e 58 160
e 58 163
e 58 166
e 58 167
e 58 170
e 58 175
e 58 179
e 58 180
e 58 193
e 58 194
e 58 196
e 59 64
e 59 66
e 59 69
e 59 75
e 59 76
e 59 78
e 59 83
e 59 92
e 59 96
e 59 97
e 59 103
e 59 109
e 59 113
e 59 114
e 59 125
e 59 126
e 59 131
e 59 139
e 59 141
e 59 150
e 59 152
e 59 160
e 59 165
e 59 169
e 59 172
e 59 178
e 60 69
e 60 71
e 60 75
e 60 86
e 60 89
e 60 108
e 60 114
e 60 120
e 60 133
e 60 143
e 60 145
e 60 146
e 60 148
e 60 149
e 60 154
e 60 157
e 60 160
e 60 161
e 60 162
e 60 163
e 60 167
e 60 169
e 60 178
e 60 182
e 60 189
e 60 195
e 60 198
e 60 200
e 61 64
e 61 73
e 61 76
e 61 80
e 61 84
e 61 85
e 61 91
e 61 96
e 61 99
e 61 101
e 61 104
e 61 106
e 61 108
e 61 110
e 61 111
e 61 113
e 61 119
e 61 120
e 61 124
e 61 128
e 61 130
e 61 133
e 61 134
e 61 143
e 61 145
e 61 152
e 61 163
e 61 166
e 61 169
e 61 178
e 61 189
e 61 193
e 61 194
e 61 195
e 61 196
e 61 200
e 62 65
e 62 67
e 62 68
e 62 72
e 62 73
e 62 74
e 62 77
e 62 86
e 62 87
e 62 111
e 62 119
e 62 120
e 62 122
e 62 130
e 62 131
e 62 138
e 62 139
e 62 140
e 62 152
e 62 155
e 62 166
e 62 167
e 62 168
e 62 169
e 62 172
e 62 174
e 62 175
e 62 184
e 62 185
e 62 189
e 62 190
e 62 191
e 62 192
e 62 200
e 63 67
e 63 77
e 63 83
e 63 93
e 63 94
e 63 100
e 63 103
e 63 108
e 63 110
e 63 111
e 63 112
e 63 122
e 63 126
e 63 131
e 63 133
e 63 135
e 63 139
e 63 140
e 63 143
e 63 161
e 63 167
e 63 178
e 63 186
e 63 192
e 63 195
e 63 200
e 64 65
e 64 71
e 64 72
e 64 73
e 64 81
e 64 83
e 64 85
e 64 97
e 64 111
e 64 116
e 64 129
e 64 140
e 64 153
e 64 165
e 64 167
e 64 178
e 64 179
e 64 182
e 64 187
e 64 188
e 64 195
e 64 196
e 64 197
e 65 67
e 65 72
e 65 78
e 65 88
e 65 93
e 65 96
e 65 97
e 65 107
e 65 108
e 65 110
e 65 123
e 65 126
e 65 129
e 65 130
e 65 133
e 65 140
e 65 141
e 65 142
e 65 149
e 65 159
e 65 160
e 65 164
e 65 169
e 65 174
e 65 182
e 65 183
e 65 185
e 66 73
e 66 75
e 66 79
e 66 81
e 66 103
e 66 121
e 66 123
e 66 128
e 66 134
e 66 137
e 66 146
e 66 159
e 66 176
e 66 180
e 66 181
e 66 186
e 66 187
e 66 197
e 66 198
e 66 200
e 67 71
e 67 76
e 67 80
e 67 94
e 67 99
e 67 108
e 67 110
e 67 120
e 67 129
e 67 138
e 67 140
e 67 145
e 67 151
e 67 159
e 67 163
e 67 170
e 67 171
e 67 178
e 67 181
e 67 184
e 67 185
e 67 186
e 67 191
e 67 193
e 67 195
e 68 72
e 68 74
e 68 76
e 68 81
e 68 88
e 68 90
e 68 91
e 68 94
e 68 95
e 68 115
e 68 117
e 68 120
e 68 122
e 68 124
e 68 128
e 68 132
e 68 133
e 68 136
e 68 151
e 68 153
e 68 177
e 68 178
e 68 183
e 68 186
e 68 189
e 68 196
e 68 197
e 69 79
e 69 82
e 69 83
e 69 84
e 69 87
e 69 93
e 69 99
e 69 112
e 69 115
e 69 143
e 69 145
e 69 149
e 69 154
e 69 155
e 69 157
e 69 171
e 69 177
e 69 182
e 69 195
e 69 197
e 70 72
e 70 73
e 70 75
e 70 90
e 70 97
e 70 103
e 70 107
e 70 110
e 70 119
e 70 123
e 70 131
e 70 136
e 70 144
e 70 146
e 70 149
e 70 153
e 70 157
e 70 167
e 70 170
e 70 173
e 70 191
e 70 193
e 70 194
e 71 73
e 71 74
e 71 76
e 71 83
e 71 85
e 71 97
e 71 106
e 71 119
e 71 124
e 71 128
e 71 130
e 71 133
e 71 135
e 71 137
e 71 142
e 71 151
e 71 152
e 71 155
e 71 157
e 71 163
e 71 172
e 71 176
e 71 188
e 71 195
e 71 197
e 71 199
e 71 200
e 72 80
e 72 81
e 72 84
e 72 87
e 72 91
e 72 94
e 72 98
e 72 105
e 72 107
e 72 115
e 72 123
e 72 134
e 72 135
e 72 150
e 72 151
e 72 160
e 72 164
e 72 167
e 72 169
e 72 174
e 72 178
e 72 182
e 72 185
e 72 186
e 72 188
e 72 189
e 72 191
e 72 192
e 73 81
e 73 85
e 73 86
e 73 87
e 73 91
e 73 99
e 73 102
e 73 103
e 73 104
e 73 105
e 73 113
e 73 118
e 73 130
e 73 133
e 73 134
e 73 140
e 73 144
e 73 148
e 73 153
e 73 155
e 73 160
e 73 163
e 73 175
e 73 183
e 73 193
e 73 199
e 74 81
e 74 82
e 74 84
e 74 86
e 74 89
e 74 96
e 74 100
e 74 108
e 74 109
e 74 111
e 74 112
e 74 116
e 74 117
e 74 118
e 74 123
e 74 137
e 74 139
e 74 144
e 74 150
e 74 154
e 74 156
e 74 159
e 74 164
e 74 168
e 74 173
e 74 174
e 74 176
e 74 177
e 74 178
e 74 180
e 74 182
e 74 185
e 74 187
e 74 191
e 74 194
e 74 195
e 75 79
e 75 80
e 75 83
e 75 85
e 75 86
e 75 88
e 75 90
e 75 97
e 75 103
e 75 109
e 75 114
e 75 119
e 75 131
e 75 135
e 75 137
e 75 138
e 75 139
e 75 143
e 75 144
e 75 146
e 75 147
e 75 152
e 75 154
e 75 158
e 75 168
e 75 171
e 75 174
e 75 176
e 75 177
e 75 179
e 75 184
e 75 190
e 75 197
e 75 199
e 76 77
e 76 81
e 76 82
e 76 83
e 76 85
e 76 86
e 76 87
e 76 90
e 76 97
e 76 104
e 76 108
e 76 119
e 76 127
e 76 136
e 76 139
e 76 144
e 76 152
e 76 158
e 76 163
e 76 164
e 76 172
e 76 185
e 76 187
e 76 189
e 76 195
e 77 87
e 77 88
e 77 95
e 77 107
e 77 109
e 77 113
e 77 116
e 77 118
e 77 119
e 77 123
e 77 124
e 77 130
e 77 132
e 77 141
e 77 149
e 77 154
e 77 160
e 77 164
e 77 167
e 77 169
e 77 171
e 77 172
e 77 180
e 77 186
e 77 187
e 77 190
e 77 197
e 77 200
e 78 80
e 78 87
e 78 93
e 78 97
e 78 99
e 78 103
e 78 106
e 78 113
e 78 115
e 78 119
e 78 123
e 78 124
e 78 135
e 78 136
e 78 142
e 78 146
e 78 149
e 78 153
e 78 157
e 78 167
e 78 170
e 78 174
e 78 181
e 78 183
e 78 184
e 78 194
e 78 200
e 79 82
e 79 90
e 79 98
e 79 99
e 79 106
e 79 107
e 79 109
e 79 113
e 79 114
e 79 116
e 79 117
e 79 119
e 79 120
e 79 124
e 79 140
e 79 147
e 79 148
e 79 150
e 79 153
e 79 158
e 79 162
e 79 174
e 79 176
e 79 179
e 79 182
e 79 183
e 79 186
e 79 187
e 79 193
e 79 198
e 79 199
e 80 84
e 80 87
e 80 97
e 80 110
e 80 112
e 80 126
e 80 129
e 80 133
e 80 139
e 80 142
e 80 161
e 80 162
e 80 164
e 80 179
e 80 197
e 80 199
e 81 84
e 81 93
e 81 107
e 81 108
e 81 115
e 81 117
e 81 124
e 81 126
e 81 127
e 81 134
e 81 138
e 81 142
e 81 153
e 81 159
e 81 162
e 81 163
e 81 164
e 81 165
e 81 172
e 81 186
e 81 191
e 81 195
e 81 200
e 82 88
e 82 94
e 82 112
e 82 113
e 82 117
e 82 120
e 82 125
e 82 126
e 82 138
e 82 139
e 82 140
e 82 147
e 82 148
e 82 159
e 82 163
e 82 165
e 82 168
e 82 173
e 82 175
e 82 178
e 82 182
e 82 183
e 82 189
e 82 192
e 82 193
e 82 194
e 82 195
e 82 196
e 83 85
e 83 87
e 83 89
e 83 96
e 83 97
e 83 101
e 83 103
e 83 109
e 83 113
e 83 117
e 83 120
e 83 121
e 83 122
e 83 123
e 83 129
e 83 131
e 83 137
e 83 142
e 83 150
e 83 151
e 83 153
e 83 161
e 83 169
e 83 172
e 83 181
e 83 182
e 83 200
e 84 88
e 84 94
e 84 106
e 84 107
e 84 113
e 84 119
e 84 121
e 84 124
e 84 127
e 84 131
e 84 133
e 84 135
e 84 136
e 84 137
e 84 140
e 84 148
e 84 153
e 84 160
e 84 164
e 84 169
e 84 176
e 84 180
e 84 189
e 84 190
e 84 191
e 84 192
e 84 198
e 84 200
e 85 91
e 85 93
e 85 98
e 85 104
e 85 105
e 85 112
e 85 124
e 85 132
e 85 135
e 85 136
e 85 139
e 85 146
e 85 151
e 85 158
e 85 161
e 85 167
e 85 178
e 85 179
e 85 180
e 85 185
e 85 198
e 86 91
e 86 94
e 86 97
e 86 103
e 86 107
e 86 110
e 86 111
e 86 118
e 86 130
e 86 131
e 86 133
e 86 137
e 86 139
e 86 150
e 86 158
e 86 166
e 86 169
e 86 170
e 86 171
e 86 173
e 86 175
e 86 176
e 86 179
e 86 184
e 86 186
e 86 189
e 86 195
e 87 91
e 87 101
e 87 111
e 87 115
e 87 120
e 87 125
e 87 138
e 87 139
e 87 156
e 87 157
e 87 158
e 87 161
e 87 175
e 87 176
e 87 178
e 87 180
e 87 184
e 87 189
e 87 191
e 88 90
e 88 100
e 88 102
e 88 106
e 88 111
e 88 113
e 88 117
e 88 125
e 88 131
e 88 138
e 88 145
e 88 148
e 88 159
e 88 160
e 88 166
e 88 168
e 88 170
e 88 172
e 88 179
e 88 187
e 88 188
e 88 195
e 89 101
e 89 116
e 89 119
e 89 125
e 89 128
e 89 129
e 89 139
e 89 140
e 89 141
e 89 149
e 89 152
e 89 153
e 89 160
e 89 165
e 89 175
e 89 178
e 89 183
e 89 187
e 89 189
e 89 197
e 90 96
e 90 97
e 90 99
e 90 100
e 90 106
e 90 107
e 90 108
e 90 114
e 90 120
e 90 123
e 90 126
e 90 132
e 90 140
e 90 143
e 90 149
e 90 153
e 90 162
e 90 167
e 90 169
e 90 171
e 90 182
e 90 189
e 90 192
e 90 193
e 91 98
e 91 100
e 91 101
e 91 102
e 91 107
e 91 108
e 91 110
e 91 113
e 91 116
e 91 118
e 91 119
e 91 130
e 91 132
e 91 134
e 91 146
e 91 151
e 91 159
e 91 163
e 91 172
e 91 174
e 91 175
e 91 179
e 91 180
e 91 182
e 91 196
e 91 200
e 92 97
e 92 100
e 92 109
e 92 112
e 92 119
e 92 130
e 92 131
e 92 136
e 92 139
e 92 145
e 92 150
e 92 151
e 92 152
e 92 161
e 92 165
e 92 166
e 92 171
e 92 172
e 92 175
e 92 183
e 92 184
e 92 193
e 92 195
e 92 198
e 93 99
e 93 113
e 93 114
e 93 125
e 93 126
e 93 127
e 93 141
e 93 151
e 93 154
e 93 159
e 93 160
e 93 163
e 93 165
e 93 179
e 93 180
e 93 183
e 93 189
e 94 96
e 94 101
e 94 104
e 94 107
e 94 112
e 94 119
e 94 124
e 94 131
e 94 138
e 94 155
e 94 164
e 94 176
e 94 177
e 94 182
e 94 183
e 94 195
e 94 198
e 94 199
e 95 102
e 95 108
e 95 111
e 95 129
e 95 134
e 95 145
e 95 146
e 95 148
e 95 165
e 95 167
e 95 172
e 95 187
e 95 193
e 96 97
e 96 98
e 96 100
e 96 101
e 96 102
e 96 107
e 96 117
e 96 122
e 96 123
e 96 124
e 96 135
e 96 152
e 96 167
e 96 174
e 96 179
e 96 185
e 96 191
e 96 197
e 96 198
e 97 103
e 97 109
e 97 115
e 97 130
e 97 131
e 97 132
e 97 134
e 97 135
e 97 137
e 97 140
e 97 141
e 97 142
e 97 152
e 97 154
e 97 155
e 97 175
e 97 180
e 97 185
e 97 189
e 97 194
e 97 197
e 98 103
e 98 110
e 98 112
e 98 122
e 98 128
e 98 136
e 98 138
e 98 140
e 98 143
e 98 144
e 98 147
e 98 149
e 98 154
e 98 156
e 98 160
e 98 162
e 98 163
e 98 166
e 98 169
e 98 180
e 98 181
e 98 184
e 98 185
e 98 191
e 98 192
e 98 194
e 98 195
e 99 101
e 99 110
e 99 117
e 99 131
e 99 133
e 99 134
e 99 137
e 99 150
e 99 156
e 99 162
e 99 166
e 99 168
e 99 169
e 99 181
e 99 184
e 99 189
e 99 191
e 100 102
e 100 107
e 100 127
e 100 130
e 100 136
e 100 137
e 100 138
e 100 139
e 100 145
e 100 155
e 100 160
e 100 164
e 100 166
e 100 175
e 100 178
e 100 179
e 100 181
e 100 188
e 100 189
e 100 193
e 100 198
e 100 200
e 101 102
e 101 103
e 101 123
e 101 126
e 101 128
e 101 132
e 101 133
e 101 141
e 101 142
e 101 145
e 101 149
e 101 158
e 101 176
e 101 182
e 101 183
e 101 184
e 101 191
e 101 200
e 102 112
e 102 116
e 102 118
e 102 136
e 102 139
e 102 140
e 102 143
e 102 144
e 102 153
e 102 167
e 102 175
e 102 180
e 102 181
e 102 182
e 102 183
e 102 187
e 102 189
e 102 190
e 102 193
e 103 105
e 103 112
e 103 115
e 103 117
e 103 121
e 103 122
e 103 124
e 103 126
e 103 127
e 103 134
e 103 135
e 103 136
e 103 139
e 103 144
e 103 146
e 103 157
e 103 158
e 103 163
e 103 166
e 103 172
e 103 174
e 103 177
e 103 180
e 103 184
e 103 189
e 103 198
e 104 106
e 104 109
e 104 110
e 104 113
e 104 115
e 104 119
e 104 122
e 104 125
e 104 131
e 104 137
e 104 141
e 104 142
e 104 146
e 104 153
e 104 158
e 104 171
e 104 187
e 104 193
e 104 198
e 105 109
e 105 119
e 105 127
e 105 130
e 105 146
e 105 149
e 105 154
e 105 156
e 105 165
e 105 166
e 105 168
e 105 171
e 105 178
e 105 190
e 106 111
e 106 123
e 106 132
e 106 147
e 106 149
e 106 152
e 106 154
e 106 155
e 106 156
e 106 157
e 106 167
e 106 176
e 106 178
e 106 182
e 106 188
e 107 109
e 107 123
e 107 126
e 107 128
e 107 131
e 107 144
e 107 145
e 107 147
e 107 150
e 107 152
e 107 164
e 107 167
e 107 169
e 107 173
e 107 174
e 107 177
e 107 179
e 107 184
e 107 188
e 107 194
e 108 110
e 108 120
e 108 122
e 108 131
e 108 134
e 108 135
e 108 145
e 108 152
e 108 155
e 108 166
e 108 177
e 108 179
e 108 184
e 108 186
e 108 192
e 109 114
e 109 121
e 109 122
e 109 127
e 109 129
e 109 130
e 109 131
e 109 138
e 109 141
e 109 143
e 109 147
e 109 149
e 109 162
e 109 164
e 109 167
e 109 175
e 109 176
e 109 179
e 109 194
e 109 196
e 109 199
e 110 113
e 110 114
e 110 125
e 110 128
e 110 131
e 110 133
e 110 141
e 110 143
e 110 144
e 110 148
e 110 149
e 110 170
e 110 172
e 110 174
e 110 181
e 110 185
e 110 189
e 110 195
e 110 196
e 110 200
e 111 126
e 111 135
e 111 137
e 111 138
e 111 151
e 111 154
e 111 157
e 111 158
e 111 160
e 111 166
e 111 170
e 111 171
e 111 175
e 111 179
e 111 180
e 111 181
e 111 186
e 111 196
e 111 197
e 111 200
e 112 118
e 112 119
e 112 122
e 112 127
e 112 128
e 112 141
e 112 144
e 112 148
e 112 152
e 112 153
e 112 162
e 112 167
e 112 175
e 112 189
e 112 191
e 112 193
e 113 114
e 113 115
e 113 118
e 113 127
e 113 129
e 113 136
e 113 138
e 113 150
e 113 154
e 113 156
e 113 158
e 113 161
e 113 168
e 113 169
e 113 175
e 113 179
e 113 183
e 113 192
e 113 194
e 113 198
e 113 199
e 113 200
e 114 128
e 114 130
e 114 131
e 114 132
e 114 135
e 114 140
e 114 141
e 114 146
e 114 150
e 114 152
e 114 153
e 114 160
e 114 162
e 114 166
e 114 172
e 114 173
e 114 181
e 114 183
e 114 188
e 114 189
e 114 192
e 115 120
e 115 125
e 115 128
e 115 141
e 115 144
e 115 145
e 115 150
e 115 163
e 115 166
e 115 168
e 115 169
e 115 171
e 115 180
e 115 182
e 115 184
e 115 185
e 115 189
e 115 190
e 115 198
e 115 200
e 116 126
e 116 127
e 116 131
e 116 133
e 116 136
e 116 146
e 116 150
e 116 151
e 116 156
e 116 159
e 116 168
e 116 170
e 116 172
e 116 178
e 116 186
e 116 187
e 116 194
e 117 118
e 117 119
e 117 121
e 117 130
e 117 143
e 117 145
e 117 146
e 117 149
e 117 154
e 117 168
e 117 170
e 117 173
e 117 174
e 117 175
e 117 182
e 117 183
e 117 197
e 118 136
e 118 137
e 118 138
e 118 150
e 118 152
e 118 160
e 118 161
e 118 163
e 118 164
e 118 167
e 118 171
e 118 176
e 118 181
e 118 183
e 118 185
e 118 186
e 118 187
e 118 190
e 118 199
e 119 123
e 119 128
e 119 129
e 119 132
e 119 134
e 119 135
e 119 140
e 119 142
e 119 143
e 119 151
e 119 155
e 119 161
e 119 166
e 119 169
e 119 170
e 119 173
e 119 183
e 119 186
e 119 188
e 119 195
e 119 197
e 119 200
e 120 124
e 120 128
e 120 129
e 120 143
e 120 145
e 120 147
e 120 150
e 120 151
e 120 155
e 120 161
e 120 172
e 120 174
e 120 187
e 120 193
e 121 127
e 121 136
e 121 149
e 121 159
e 121 165
e 121 169
e 121 182
e 121 183
e 121 185
e 121 190
e 121 192
e 122 132
e 122 137
e 122 141
e 122 149
e 122 150
e 122 154
e 122 156
e 122 159
e 122 168
e 122 174
e 122 179
e 122 183
e 122 195
e 122 200
e 123 128
e 123 136
e 123 146
e 123 148
e 123 150
e 123 153
e 123 155
e 123 165
e 123 168
e 123 169
e 123 173
e 123 177
e 123 180
e 123 184
e 123 190
e 124 130
e 124 131
e 124 141
e 124 142
e 124 143
e 124 146
e 124 149
e 124 153
e 124 165
e 124 168
e 124 170
e 124 173
e 124 174
e 124 183
e 124 185
e 124 189
e 124 195
e 124 197
e 125 130
e 125 133
e 125 138
e 125 139
e 125 142
e 125 153
e 125 163
e 125 176
e 125 185
e 125 191
e 125 194
e 125 197
e 126 128
e 126 141
e 126 154
e 126 158
e 126 164
e 126 169
e 126 170
e 126 176
e 126 179
e 126 191
e 126 194
e 126 195
e 126 198
e 126 199
e 127 131
e 127 137
e 127 143
e 127 145
e 127 148
e 127 158
e 127 160
e 127 161
e 127 163
e 127 171
e 127 190
e 127 192
e 128 130
e 128 131
e 128 136
e 128 140
e 128 155
e 128 164
e 128 173
e 128 174
e 128 175
e 128 178
e 128 184
e 128 185
e 128 188
e 128 195
e 128 196
e 128 197
e 128 198
e 129 133
e 129 140
e 129 144
e 129 145
e 129 150
e 129 158
e 129 162
e 129 173
e 129 180
e 129 187
e 129 200
e 130 134
e 130 137
e 130 146
e 130 149
e 130 152
e 130 154
e 130 155
e 130 179
e 130 182
e 130 188
e 130 190
e 130 196
e 130 197
e 131 133
e 131 141
e 131 156
e 131 159
e 131 172
e 131 183
e 131 195
e 131 199
e 132 135
e 132 137
e 132 138
e 132 146
e 132 147
e 132 150
e 132 151
e 132 161
e 132 164
e 132 166
e 132 167
e 132 170
e 132 172
e 132 173
e 132 175
e 132 185
e 132 188
e 132 196
e 132 199
e 133 134
e 133 138
e 133 140
e 133 144
e 133 145
e 133 151
e 133 153
e 133 156
e 133 172
e 133 178
e 133 179
e 133 182
e 133 188
e 133 190
e 133 194
e 133 197
e 134 141
e 134 142
e 134 143
e 134 144
e 134 145
e 134 146
e 134 152
e 134 156
e 134 162
e 134 163
e 134 165
e 134 166
e 134 174
e 134 176
e 134 177
e 134 182
e 134 185
e 134 186
e 134 199
e 135 138
e 135 141
e 135 148
e 135 153
e 135 156
e 135 159
e 135 162
e 135 166
e 135 172
e 135 179
e 135 184
e 135 186
e 135 200
e 136 145
e 136 157
e 136 158
e 136 162
e 136 163
e 136 164
e 136 167
e 136 169
e 136 173
e 136 174
e 136 176
e 136 181
e 136 184
e 136 188
e 136 189
e 136 191
e 136 194
e 136 195
e 136 199
e 137 138
e 137 141
e 137 143
e 137 146
e 137 159
e 137 161
e 137 162
e 137 176
e 137 177
e 137 179
e 137 180
e 137 184
e 137 187
e 137 193
e 137 200
e 138 139
e 138 145
e 138 155
e 138 161
e 138 162
e 138 166
e 138 174
e 138 176
e 138 179
e 138 184
e 138 187
e 138 191
e 139 146
e 139 148
e 139 153
e 139 159
e 139 160
e 139 164
e 139 169
e 139 170
e 139 173
e 139 193
e 139 197
e 140 142
e 140 143
e 140 146
e 140 150
e 140 155
e 140 157
e 140 182
e 140 183
e 140 188
e 140 197
e 140 198
e 141 144
e 141 148
e 141 154
e 141 158
e 141 163
e 141 167
e 141 168
e 141 170
e 141 190
e 141 192
e 141 194
e 141 200
e 142 144
e 142 154
e 142 160
e 142 164
e 142 180
e 142 184
e 142 186
e 142 191
e 142 192
e 142 199
e 143 144
e 143 146
e 143 149
e 143 150
e 143 158
e 143 163
e 143 166
e 143 171
e 143 174
e 143 176
e 143 177
e 143 179
e 143 181
e 143 189
e 143 190
e 143 192
e 143 193
e 143 194
e 143 195
e 144 145
e 144 146
e 144 165
e 144 169
e 144 172
e 144 186
e 144 188
e 144 189
e 144 190
e 144 196
e 145 150
e 145 154
e 145 155
e 145 165
e 145 174
e 145 175
e 145 176
e 145 178
e 145 185
e 145 189
e 145 192
e 145 193
e 145 198
e 146 147
e 146 148
e 146 156
e 146 169
e 146 171
e 146 173
e 146 175
e 146 177
e 146 178
e 146 181
e 146 183
e 146 191
e 147 148
e 147 152
e 147 159
e 147 165
e 147 171
e 147 173
e 147 183
e 147 184
e 147 190
e 147 191
e 147 192
e 148 152
e 148 153
e 148 161
e 148 164
e 148 166
e 148 170
e 148 173
e 148 184
e 148 197
e 149 152
e 149 154
e 149 156
e 149 160
e 149 173
e 149 175
e 149 178
e 149 179
e 149 182
e 149 187
e 149 195
e 149 197
e 150 152
e 150 160
e 150 164
e 150 165
e 150 170
e 150 172
e 150 184
e 150 186
e 150 187
e 150 189
e 150 195
e 151 161
e 151 162
e 151 164
e 151 178
e 151 181
e 151 186
e 151 191
e 151 196
e 151 197
e 151 198
e 152 168
e 152 169
e 152 181
e 152 188
e 152 190
e 152 192
e 152 195
e 152 196
e 153 159
e 153 161
e 153 163
e 153 165
e 153 171
e 153 173
e 153 180
e 153 181
e 153 183
e 153 184
e 153 186
e 153 193
e 153 198
e 153 199
e 153 200
e 154 162
e 154 168
e 154 169
e 154 174
e 154 186
e 155 159
e 155 169
e 155 171
e 155 182
e 155 186
e 155 192
e 155 197
e 156 163
e 156 181
e 156 182
e 156 184
e 156 185
e 156 188
e 156 193
e 157 160
e 157 164
e 157 166
e 157 175
e 157 182
e 157 189
e 157 197
e 157 200
e 158 163
e 158 171
e 158 172
e 158 178
e 158 190
e 158 193
e 158 194
e 158 199
e 158 200
e 159 161
e 159 169
e 159 173
e 159 176
e 159 177
e 159 188
e 159 190
e 159 196
e 159 197
e 160 161
e 160 172
e 160 174
e 160 182
e 160 183
e 160 184
e 160 192
e 160 197
e 161 164
e 161 165
e 161 172
e 161 177
e 161 180
e 161 181
e 161 188
e 161 198
e 162 164
e 162 169
e 162 170
e 162 183
e 162 184
e 162 192
e 162 194
e 162 198
e 163 173
e 163 181
e 163 182
e 163 190
e 163 199
e 164 165
e 164 167
e 164 179
e 164 187
e 164 199
e 164 200
e 165 167
e 165 169
e 165 171
e 165 173
e 165 176
e 165 182
e 165 193
e 165 195
e 166 168
e 166 170
e 166 178
e 166 182
e 166 187
e 166 190
e 166 194
e 167 171
e 167 186
e 167 190
e 168 169
e 168 174
e 168 175
e 168 184
e 168 186
e 168 189
e 168 192
e 169 181
e 169 183
e 169 184
e 169 186
e 169 187
e 169 190
e 169 196
e 169 198
e 170 186
e 170 194
e 171 174
e 171 179
e 171 180
e 171 182
e 171 183
e 171 184
e 171 188
e 171 190
e 171 191
e 171 196
e 171 198
e 171 200
e 172 174
e 172 179
e 172 182
e 172 187
e 172 190
e 172 194
e 172 197
e 172 198
e 172 200
e 173 177
e 173 180
e 173 186
e 173 187
e 173 188
e 173 190
e 173 194
e 174 183
e 174 188
e 174 189
e 174 194
e 174 196
e 174 200
e 175 177
e 175 179
e 175 182
e 175 187
e 175 188
e 175 195
e 175 197
e 176 177
e 176 178
e 176 181
e 176 182
e 176 188
e 176 190
e 176 191
e 176 196
e 177 187
e 177 197
e 178 181
e 178 188
e 178 192
e 178 194
e 178 198
e 179 180
e 179 181
e 179 182
e 179 186
e 179 190
e 179 194
e 179 198
e 180 182
e 180 185
e 180 191
e 180 195
e 181 186
e 181 190
e 181 193
e 181 199
e 182 183
e 182 192
e 183 189
e 183 196
e 183 197
e 183 198
e 184 187
e 184 193
e 185 199
e 186 188
e 187 193
e 187 198
e 187 200
e 188 189
e 188 192
e 189 194
e 189 198
e 190 192
e 190 196
e 190 198
e 191 199
e 192 196
e 192 199
e 193 197
e 194 195
e 195 196
e 195 199
e 199 200
